85 
300 
-0.5 0 0 0
0.5 0 0 -23
-7 -7 -35 -105
-7 -5 35 -24
-7 -3 -35 -120
-7 -1 -35 -122
-7 1 35 -14
-7 3 -35 -116
-7 5 -35 -72
-7 7 35 -29
-5 -7 -35 -88
-5 -5 25 -27
-5 -3 -25 -116
-5 -1 -25 -98
-5 1 25 -21
-5 3 -25 -75
-5 5 25 -28
-5 7 35 -24
-3 -7 35 -19
-3 -5 -25 -104
-3 -3 -15 -94
-3 -1 15 -15
-3 1 15 -17
-3 3 15 -13
-3 5 25 -12
-3 7 35 -28
-1 -7 -35 -108
-1 -5 25 -10
-1 -3 -15 -110
-1 -1 5 -11
-1 1 -5 -113
-1 3 15 -28
-1 5 25 -20
-1 7 35 -27
1 -7 35 -29
1 -5 -25 -89
1 -3 15 -19
1 -1 -5 -65
1 1 -5 -120
1 3 15 -23
1 5 25 -23
1 7 35 -24
3 -7 35 -29
3 -5 -25 -79
3 -3 -15 -73
3 -1 -15 -74
3 1 -15 -128
3 3 15 -13
3 5 25 -29
3 7 35 -18
5 -7 -35 -109
5 -5 25 -22
5 -3 -25 -102
5 -1 -25 -121
5 1 -25 -71
5 3 25 -28
5 5 -25 -67
5 7 35 -11
7 -7 35 -17
7 -5 35 -14
7 -3 35 -13
7 -1 35 -17
7 1 -35 -89
7 3 -35 -63
7 5 35 -19
7 7 35 -21
